
Gurobi 7.0.2 (linux64, Python) logging started Tue Mar  7 15:13:15 2017


Gurobi 7.0.2 (linux64, Python) logging started Tue Mar  7 15:34:45 2017


Gurobi 7.0.2 (linux64, Python) logging started Tue Mar  7 15:53:59 2017


Gurobi 7.0.2 (linux64, Python) logging started Tue Mar  7 16:13:12 2017


Gurobi 7.0.2 (linux64, Python) logging started Tue Mar  7 16:31:14 2017


Gurobi 7.0.2 (linux64, Python) logging started Fri Mar 10 17:07:09 2017


Gurobi 7.0.2 (linux64, Python) logging started Fri Mar 10 17:27:57 2017


Gurobi 7.0.2 (linux64, Python) logging started Fri Mar 10 17:47:51 2017


Gurobi 7.0.2 (linux64, Python) logging started Fri Mar 10 18:07:59 2017


Gurobi 7.0.2 (linux64, Python) logging started Fri Mar 10 18:26:21 2017


Gurobi 7.0.2 (linux64, Python) logging started Sat Mar 11 18:49:03 2017

